100 2033
299 796 429 65 623 702 999 401 196 904 204 720 408 327 148 617 611 15 320 679 791 604 801 893 246 44 973 821 63 94 386 805 505 612 241 570 150 700 564 897 713 595 39 848 304 168 658 634 978 127 100 80 224 106 953 919 224 329 869 336 45 235 271 539 512 434 766 811 770 115 78 404 470 979 700 887 435 722 13 621 376 979 3 687 814 882 423 188 993 700 127 955 287 562 465 772 478 869 638 946 
345 693 467 100 141 291 670 781 46 59 357 100 493 661 206 254 310 425 258 407 614 313 901 496 350 121 795 617 439 104 795 141 525 414 45 762 749 518 637 976 416 523 247 759 416 644 395 379 216 657 792 497 934 5 970 657 994 348 309 539 798 932 145 868 909 869 902 768 717 211 919 919 703 240 617 386 860 556 290 220 527 39 972 555 655 579 329 581 507 156 462 46 166 665 865 926 218 898 493 805 
